c Random generated cnf formula, satisfiable: false
p cnf 10 50
5 -9 2 0
4 10 -2 0
4 -6 -1 0
3 -6 7 0
5 6 9 0
-5 9 8 0
6 2 -7 0
5 -8 9 0
-7 4 6 0
1 -10 7 0
9 -6 8 0
-9 -1 2 0
5 -1 -8 0
1 -5 2 0
-2 9 -4 0
-2 -9 -5 0
5 -9 10 0
-10 4 7 0
5 -8 7 0
6 4 -5 0
9 -8 3 0
8 -10 -2 0
9 2 -5 0
9 -6 7 0
1 -5 -10 0
-7 10 -2 0
-8 6 -5 0
6 7 2 0
-3 4 1 0
9 4 -8 0
-10 3 -1 0
5 9 -8 0
-6 -7 5 0
2 -6 10 0
7 -1 2 0
-7 -9 -6 0
-4 -8 -9 0
-9 -5 3 0
6 -8 -5 0
10 -8 7 0
9 -6 10 0
10 7 -5 0
10 8 6 0
7 -8 -3 0
-2 10 5 0
5 9 6 0
-2 -3 5 0
-3 9 2 0
-1 -10 2 0
7 8 1 0
